************************************************************************
file with basedata            : mm23_.bas
initial value random generator: 1942692585
************************************************************************
projects                      :  1
jobs (incl. supersource/sink ):  12
horizon                       :  88
RESOURCES
  - renewable                 :  2   R
  - nonrenewable              :  2   N
  - doubly constrained        :  0   D
************************************************************************
PROJECT INFORMATION:
pronr.  #jobs rel.date duedate tardcost  MPM-Time
    1     10      0       14        6       14
************************************************************************
PRECEDENCE RELATIONS:
jobnr.    #modes  #successors   successors
   0        1          3           1   2   3
   1        3          1           4
   2        3          3           8   9  10
   3        3          3           6   7  10
   4        3          2           5   9
   5        3          1           8
   6        3          1           8
   7        3          1           9
   8        3          1          11
   9        3          1          11
  10        3          1          11
  11        1          0        
************************************************************************
REQUESTS/DURATIONS:
jobnr. mode duration  R 1  R 2  R 3  R 4  E(W 1)
------------------------------------------------------------------------
  0      1     0       0    0    0    0     0
  1      1     2       8    0    4    6    36
  2      1     3       2    0    8   10    60
  3      1     3       2    0    5    7    42
  4      1     2       0    7    6    4    34
  5      1     1       0    9    4    5    18
  6      1     3       0    4    6    9    57
  7      1     8       0    8    8    5    168
  8      1     3       0    3   10    7    60
  9      1     3       0    2    6    5    39
 10      1     2       0    2    4    8    28
 11      1     0       0    0    0    0     0
************************************************************************
RESOURCEAVAILABILITIES:
  R 1
   140
************************************************************************
RESOURCE LIMITS:
jobnr.  l(R 1)  u(R 1)
------------------------------------------------------------------------
  0        0       0
  1        9      18
  2       10      20
  3        8      14
  4        9      17
  5       10      18
  6       10      19
  7       11      21
  8       11      20
  9        7      13
 10        7      14
 11        0       0
************************************************************************
SCENARIOS:
------------------------------------------------------------------------
RESOURCE k = 1
s = 1: (0, 40, 39, 24, 22, 14, 74, 198, 47, 30, 31, 0)
s = 2: (0, 24, 47, 46, 24, 14, 40, 170, 50, 34, 40, 0)
s = 3: (0, 44, 41, 32, 31, 21, 58, 144, 41, 24, 44, 0)
s = 4: (0, 33, 86, 35, 25, 19, 83, 230, 53, 29, 43, 0)
s = 5: (0, 38, 58, 27, 24, 19, 33, 285, 75, 49, 35, 0)
s = 6: (0, 42, 79, 30, 33, 22, 58, 186, 88, 43, 31, 0)
s = 7: (0, 28, 40, 35, 39, 15, 75, 102, 46, 38, 40, 0)
s = 8: (0, 53, 106, 59, 36, 18, 45, 154, 60, 29, 23, 0)
s = 9: (0, 41, 41, 57, 50, 20, 76, 125, 61, 41, 17, 0)
s = 10: (0, 46, 66, 41, 26, 11, 49, 168, 55, 34, 30, 0)
s = 11: (0, 19, 41, 52, 29, 23, 105, 128, 65, 32, 41, 0)
s = 12: (0, 57, 45, 66, 49, 10, 50, 221, 55, 27, 25, 0)
s = 13: (0, 43, 71, 59, 51, 22, 43, 132, 60, 52, 38, 0)
s = 14: (0, 28, 74, 44, 26, 16, 84, 104, 65, 46, 26, 0)
s = 15: (0, 23, 100, 67, 38, 22, 53, 163, 43, 32, 52, 0)
s = 16: (0, 36, 41, 31, 32, 24, 54, 162, 75, 43, 24, 0)
s = 17: (0, 24, 33, 38, 47, 15, 58, 240, 73, 38, 23, 0)
s = 18: (0, 42, 48, 64, 26, 17, 58, 190, 42, 27, 22, 0)
s = 19: (0, 42, 72, 36, 53, 27, 76, 239, 51, 34, 19, 0)
s = 20: (0, 26, 65, 38, 44, 21, 43, 218, 77, 63, 31, 0)
s = 21: (0, 42, 55, 36, 28, 13, 51, 214, 49, 45, 27, 0)
s = 22: (0, 58, 70, 37, 43, 25, 66, 143, 65, 42, 18, 0)
s = 23: (0, 31, 53, 36, 41, 13, 47, 218, 59, 43, 24, 0)
s = 24: (0, 66, 56, 24, 34, 23, 46, 177, 61, 34, 32, 0)
s = 25: (0, 21, 67, 45, 41, 22, 79, 189, 41, 51, 26, 0)
s = 26: (0, 23, 67, 44, 29, 16, 58, 178, 51, 28, 25, 0)
s = 27: (0, 48, 80, 37, 26, 32, 48, 216, 44, 44, 43, 0)
s = 28: (0, 41, 72, 57, 22, 14, 59, 213, 84, 34, 20, 0)
s = 29: (0, 53, 41, 41, 37, 18, 33, 99, 80, 45, 27, 0)
s = 30: (0, 32, 62, 33, 18, 15, 48, 291, 53, 45, 30, 0)
s = 31: (0, 32, 42, 57, 29, 17, 81, 104, 35, 48, 31, 0)
s = 32: (0, 27, 61, 40, 33, 14, 33, 134, 73, 32, 25, 0)
s = 33: (0, 46, 71, 37, 44, 30, 42, 132, 66, 36, 20, 0)
s = 34: (0, 27, 72, 28, 42, 20, 72, 160, 32, 38, 30, 0)
s = 35: (0, 45, 40, 45, 19, 25, 85, 146, 36, 33, 36, 0)
s = 36: (0, 25, 39, 34, 32, 25, 86, 151, 71, 56, 30, 0)
s = 37: (0, 31, 79, 47, 32, 19, 85, 127, 42, 52, 36, 0)
s = 38: (0, 32, 58, 30, 33, 14, 85, 135, 41, 60, 39, 0)
s = 39: (0, 43, 50, 42, 28, 18, 71, 160, 51, 47, 27, 0)
s = 40: (0, 28, 58, 33, 19, 18, 36, 151, 83, 43, 28, 0)
s = 41: (0, 44, 64, 59, 19, 26, 85, 182, 53, 45, 35, 0)
s = 42: (0, 37, 50, 27, 21, 17, 41, 135, 35, 52, 18, 0)
s = 43: (0, 21, 40, 26, 55, 18, 51, 128, 42, 46, 24, 0)
s = 44: (0, 30, 60, 32, 49, 19, 76, 157, 66, 48, 49, 0)
s = 45: (0, 30, 42, 53, 35, 15, 32, 214, 55, 50, 35, 0)
s = 46: (0, 36, 45, 37, 24, 15, 71, 258, 76, 66, 34, 0)
s = 47: (0, 31, 53, 66, 23, 13, 63, 130, 51, 44, 24, 0)
s = 48: (0, 39, 64, 37, 25, 20, 40, 116, 53, 31, 28, 0)
s = 49: (0, 49, 85, 44, 35, 23, 48, 142, 80, 27, 19, 0)
s = 50: (0, 29, 57, 34, 54, 14, 49, 131, 66, 32, 16, 0)
s = 51: (0, 38, 78, 31, 28, 16, 81, 132, 73, 24, 50, 0)
s = 52: (0, 46, 63, 24, 36, 17, 46, 298, 80, 28, 36, 0)
s = 53: (0, 26, 51, 37, 37, 11, 74, 128, 63, 28, 25, 0)
s = 54: (0, 61, 62, 45, 24, 12, 44, 162, 55, 49, 30, 0)
s = 55: (0, 23, 105, 40, 38, 16, 59, 179, 43, 30, 30, 0)
s = 56: (0, 35, 38, 23, 41, 15, 50, 209, 53, 23, 20, 0)
s = 57: (0, 42, 39, 47, 34, 18, 48, 193, 81, 37, 24, 0)
s = 58: (0, 50, 52, 43, 55, 14, 62, 149, 34, 51, 24, 0)
s = 59: (0, 39, 52, 30, 30, 18, 48, 167, 33, 40, 35, 0)
s = 60: (0, 40, 75, 57, 38, 25, 51, 98, 95, 36, 30, 0)
s = 61: (0, 34, 40, 36, 43, 21, 77, 219, 77, 51, 45, 0)
s = 62: (0, 37, 86, 38, 29, 19, 45, 97, 44, 23, 27, 0)
s = 63: (0, 43, 49, 39, 29, 15, 59, 139, 67, 24, 22, 0)
s = 64: (0, 40, 65, 48, 31, 15, 30, 132, 56, 48, 20, 0)
s = 65: (0, 26, 37, 42, 22, 18, 69, 110, 73, 53, 22, 0)
s = 66: (0, 32, 82, 45, 39, 17, 58, 124, 95, 32, 28, 0)
s = 67: (0, 35, 51, 43, 22, 19, 37, 168, 70, 22, 45, 0)
s = 68: (0, 36, 48, 42, 22, 15, 93, 144, 65, 46, 28, 0)
s = 69: (0, 29, 92, 33, 27, 14, 44, 144, 66, 33, 38, 0)
s = 70: (0, 24, 102, 37, 22, 20, 41, 154, 50, 27, 30, 0)
s = 71: (0, 32, 90, 25, 42, 21, 58, 125, 72, 29, 30, 0)
s = 72: (0, 32, 52, 53, 24, 14, 90, 200, 40, 40, 46, 0)
s = 73: (0, 46, 69, 31, 48, 21, 38, 178, 50, 38, 27, 0)
s = 74: (0, 44, 75, 39, 45, 14, 59, 152, 90, 36, 39, 0)
s = 75: (0, 47, 71, 34, 28, 13, 37, 182, 46, 24, 39, 0)
s = 76: (0, 31, 38, 29, 42, 14, 107, 181, 68, 39, 37, 0)
s = 77: (0, 22, 76, 44, 24, 17, 42, 120, 63, 35, 26, 0)
s = 78: (0, 27, 44, 34, 51, 19, 52, 120, 73, 24, 35, 0)
s = 79: (0, 38, 49, 63, 56, 21, 53, 136, 57, 49, 32, 0)
s = 80: (0, 28, 60, 58, 39, 19, 67, 131, 99, 44, 20, 0)
s = 81: (0, 23, 96, 35, 45, 14, 75, 199, 58, 27, 23, 0)
s = 82: (0, 35, 65, 42, 41, 17, 48, 103, 34, 36, 19, 0)
s = 83: (0, 34, 36, 53, 45, 20, 48, 177, 68, 68, 32, 0)
s = 84: (0, 31, 100, 47, 28, 20, 38, 118, 40, 28, 23, 0)
s = 85: (0, 35, 43, 64, 29, 12, 100, 257, 48, 44, 17, 0)
s = 86: (0, 29, 71, 42, 32, 19, 56, 120, 51, 28, 35, 0)
s = 87: (0, 37, 78, 35, 42, 25, 49, 116, 32, 45, 26, 0)
s = 88: (0, 30, 82, 53, 27, 17, 73, 197, 70, 28, 37, 0)
s = 89: (0, 34, 77, 47, 42, 18, 57, 224, 47, 47, 30, 0)
s = 90: (0, 51, 102, 42, 43, 19, 39, 153, 72, 38, 25, 0)
s = 91: (0, 27, 63, 32, 36, 17, 62, 157, 35, 35, 24, 0)
s = 92: (0, 31, 47, 49, 23, 27, 36, 211, 51, 31, 32, 0)
s = 93: (0, 36, 45, 41, 37, 18, 41, 138, 54, 38, 35, 0)
s = 94: (0, 34, 53, 30, 29, 21, 80, 179, 49, 21, 18, 0)
s = 95: (0, 41, 45, 40, 22, 13, 32, 93, 76, 30, 34, 0)
s = 96: (0, 39, 57, 43, 38, 21, 44, 157, 40, 35, 28, 0)
s = 97: (0, 38, 37, 39, 44, 19, 51, 258, 96, 41, 36, 0)
s = 98: (0, 36, 75, 34, 46, 19, 75, 172, 73, 33, 19, 0)
s = 99: (0, 29, 57, 58, 39, 17, 41, 119, 38, 37, 26, 0)
s = 100: (0, 30, 82, 25, 26, 24, 63, 256, 38, 39, 27, 0)
s = 101: (0, 19, 41, 50, 33, 14, 87, 156, 55, 38, 30, 0)
s = 102: (0, 29, 41, 31, 25, 25, 67, 235, 61, 28, 24, 0)
s = 103: (0, 30, 86, 46, 46, 12, 49, 216, 53, 45, 25, 0)
s = 104: (0, 23, 60, 47, 48, 16, 35, 156, 33, 30, 40, 0)
s = 105: (0, 43, 45, 28, 23, 16, 62, 151, 56, 34, 23, 0)
s = 106: (0, 35, 37, 46, 22, 28, 42, 138, 65, 30, 39, 0)
s = 107: (0, 30, 33, 25, 48, 23, 44, 142, 104, 54, 30, 0)
s = 108: (0, 38, 77, 27, 30, 27, 46, 121, 86, 51, 44, 0)
s = 109: (0, 21, 42, 32, 41, 17, 104, 250, 50, 31, 34, 0)
s = 110: (0, 37, 52, 39, 32, 14, 92, 124, 50, 34, 28, 0)
s = 111: (0, 27, 45, 73, 25, 18, 53, 185, 41, 43, 37, 0)
s = 112: (0, 49, 51, 28, 32, 15, 79, 191, 63, 34, 20, 0)
s = 113: (0, 38, 74, 42, 42, 17, 62, 235, 91, 48, 23, 0)
s = 114: (0, 41, 71, 62, 45, 21, 55, 256, 63, 34, 27, 0)
s = 115: (0, 24, 87, 49, 38, 15, 78, 240, 57, 60, 44, 0)
s = 116: (0, 45, 46, 45, 24, 19, 50, 163, 50, 32, 34, 0)
s = 117: (0, 45, 43, 54, 30, 15, 38, 154, 65, 23, 19, 0)
s = 118: (0, 31, 90, 34, 39, 15, 50, 127, 42, 54, 22, 0)
s = 119: (0, 49, 64, 61, 35, 11, 51, 137, 45, 22, 34, 0)
s = 120: (0, 50, 71, 51, 24, 15, 80, 115, 47, 49, 38, 0)
s = 121: (0, 26, 46, 29, 27, 15, 66, 169, 76, 30, 21, 0)
s = 122: (0, 35, 62, 53, 59, 29, 67, 261, 65, 33, 38, 0)
s = 123: (0, 22, 73, 31, 32, 21, 74, 214, 73, 39, 29, 0)
s = 124: (0, 38, 49, 41, 40, 19, 56, 114, 61, 57, 23, 0)
s = 125: (0, 35, 52, 37, 27, 16, 50, 171, 64, 27, 30, 0)
s = 126: (0, 25, 73, 53, 25, 18, 46, 95, 60, 37, 33, 0)
s = 127: (0, 26, 75, 41, 40, 19, 58, 174, 43, 23, 20, 0)
s = 128: (0, 22, 37, 51, 25, 34, 69, 121, 35, 50, 37, 0)
s = 129: (0, 33, 78, 26, 27, 19, 47, 119, 45, 31, 38, 0)
s = 130: (0, 24, 60, 61, 33, 19, 47, 110, 79, 28, 19, 0)
s = 131: (0, 30, 43, 41, 37, 14, 67, 230, 54, 24, 23, 0)
s = 132: (0, 47, 89, 42, 33, 27, 53, 144, 56, 49, 38, 0)
s = 133: (0, 43, 35, 40, 28, 14, 34, 138, 101, 36, 28, 0)
s = 134: (0, 26, 78, 54, 43, 13, 44, 195, 54, 27, 31, 0)
s = 135: (0, 30, 65, 52, 34, 21, 51, 207, 76, 50, 18, 0)
s = 136: (0, 30, 61, 39, 25, 16, 70, 147, 37, 48, 20, 0)
s = 137: (0, 46, 68, 57, 46, 22, 74, 164, 82, 32, 19, 0)
s = 138: (0, 21, 54, 64, 34, 15, 56, 141, 47, 51, 26, 0)
s = 139: (0, 33, 63, 33, 25, 13, 73, 155, 80, 51, 36, 0)
s = 140: (0, 36, 61, 26, 40, 26, 74, 118, 43, 52, 24, 0)
s = 141: (0, 32, 72, 30, 44, 22, 68, 184, 60, 34, 40, 0)
s = 142: (0, 33, 73, 58, 49, 15, 55, 198, 42, 43, 29, 0)
s = 143: (0, 29, 96, 24, 40, 14, 54, 282, 55, 35, 46, 0)
s = 144: (0, 33, 68, 48, 47, 21, 43, 150, 100, 34, 18, 0)
s = 145: (0, 32, 48, 51, 27, 19, 50, 133, 62, 48, 38, 0)
s = 146: (0, 28, 58, 33, 27, 32, 71, 286, 57, 67, 49, 0)
s = 147: (0, 24, 86, 23, 36, 12, 82, 137, 60, 46, 22, 0)
s = 148: (0, 30, 54, 60, 28, 16, 62, 195, 54, 34, 31, 0)
s = 149: (0, 27, 76, 28, 37, 16, 47, 214, 46, 45, 34, 0)
s = 150: (0, 40, 41, 24, 37, 28, 56, 126, 48, 55, 27, 0)
s = 151: (0, 42, 43, 28, 28, 20, 40, 147, 43, 41, 41, 0)
s = 152: (0, 35, 77, 25, 54, 32, 51, 160, 60, 49, 29, 0)
s = 153: (0, 25, 55, 48, 30, 17, 63, 300, 106, 25, 23, 0)
s = 154: (0, 39, 40, 54, 30, 18, 47, 225, 62, 35, 41, 0)
s = 155: (0, 25, 35, 58, 34, 17, 82, 197, 79, 23, 19, 0)
s = 156: (0, 23, 43, 39, 37, 18, 54, 157, 61, 59, 16, 0)
s = 157: (0, 28, 43, 54, 28, 12, 63, 132, 37, 57, 27, 0)
s = 158: (0, 63, 49, 39, 28, 15, 67, 140, 50, 32, 33, 0)
s = 159: (0, 50, 54, 48, 27, 12, 92, 150, 64, 46, 28, 0)
s = 160: (0, 39, 51, 40, 28, 17, 75, 194, 33, 36, 22, 0)
s = 161: (0, 33, 42, 55, 34, 26, 55, 152, 85, 36, 23, 0)
s = 162: (0, 63, 45, 46, 43, 26, 43, 133, 67, 51, 19, 0)
s = 163: (0, 25, 58, 50, 49, 19, 54, 162, 43, 35, 38, 0)
s = 164: (0, 48, 72, 40, 57, 10, 54, 158, 42, 25, 18, 0)
s = 165: (0, 39, 69, 46, 52, 16, 59, 250, 56, 29, 34, 0)
s = 166: (0, 46, 71, 58, 32, 19, 34, 320, 70, 33, 40, 0)
s = 167: (0, 29, 76, 30, 43, 19, 41, 152, 79, 23, 32, 0)
s = 168: (0, 22, 38, 24, 41, 26, 68, 228, 80, 39, 19, 0)
s = 169: (0, 54, 67, 29, 28, 12, 62, 143, 56, 35, 33, 0)
s = 170: (0, 21, 52, 32, 32, 14, 58, 160, 77, 64, 22, 0)
s = 171: (0, 32, 74, 53, 46, 16, 43, 124, 42, 32, 35, 0)
s = 172: (0, 37, 62, 28, 46, 18, 65, 226, 37, 23, 18, 0)
s = 173: (0, 32, 79, 45, 27, 20, 81, 151, 64, 52, 31, 0)
s = 174: (0, 54, 71, 44, 45, 11, 63, 232, 76, 41, 33, 0)
s = 175: (0, 28, 76, 39, 45, 27, 61, 100, 65, 22, 23, 0)
s = 176: (0, 61, 66, 36, 33, 14, 53, 295, 47, 27, 21, 0)
s = 177: (0, 32, 68, 25, 27, 22, 75, 208, 55, 40, 41, 0)
s = 178: (0, 27, 57, 60, 32, 12, 85, 186, 45, 46, 44, 0)
s = 179: (0, 38, 62, 35, 36, 17, 39, 309, 40, 25, 34, 0)
s = 180: (0, 56, 56, 36, 39, 14, 91, 173, 72, 29, 23, 0)
s = 181: (0, 36, 52, 23, 38, 15, 52, 165, 107, 49, 18, 0)
s = 182: (0, 44, 57, 39, 37, 14, 95, 203, 76, 37, 28, 0)
s = 183: (0, 27, 80, 27, 38, 12, 47, 187, 64, 32, 21, 0)
s = 184: (0, 22, 79, 65, 41, 17, 104, 228, 61, 35, 36, 0)
s = 185: (0, 37, 52, 51, 28, 20, 53, 142, 36, 36, 36, 0)
s = 186: (0, 33, 76, 26, 38, 20, 61, 170, 79, 45, 44, 0)
s = 187: (0, 42, 47, 26, 24, 17, 70, 95, 57, 34, 28, 0)
s = 188: (0, 36, 54, 32, 40, 19, 65, 101, 84, 36, 42, 0)
s = 189: (0, 32, 51, 41, 52, 17, 38, 210, 90, 59, 20, 0)
s = 190: (0, 42, 69, 32, 32, 21, 37, 166, 35, 48, 38, 0)
s = 191: (0, 50, 55, 43, 27, 27, 73, 105, 101, 49, 33, 0)
s = 192: (0, 48, 77, 63, 21, 11, 56, 164, 54, 25, 34, 0)
s = 193: (0, 41, 49, 44, 22, 22, 37, 127, 66, 39, 20, 0)
s = 194: (0, 25, 78, 37, 37, 22, 53, 146, 62, 48, 32, 0)
s = 195: (0, 50, 64, 35, 44, 20, 53, 201, 76, 41, 25, 0)
s = 196: (0, 33, 81, 23, 40, 13, 55, 165, 54, 22, 27, 0)
s = 197: (0, 34, 64, 31, 47, 21, 32, 185, 58, 32, 24, 0)
s = 198: (0, 44, 57, 55, 24, 15, 47, 187, 87, 34, 22, 0)
s = 199: (0, 36, 34, 27, 28, 21, 94, 123, 42, 36, 35, 0)
s = 200: (0, 30, 61, 28, 25, 17, 88, 161, 68, 42, 19, 0)
************************************************************************
ES/LS-VALUES:
jobnr.   ES(i)    LS(i)
------------------------------------------------------------------------
  0        0        0
  1        0       72
  2        0       76
  3        0       60
  4        3       76
  5        6       80
  6        5       76
  7        5       66
  8       10       82
  9       20       82
 10        5       84
 11       25       88
************************************************************************
BIG-M-VALUES:
M1 = 30, M2 = 320
************************************************************************
